c n orig vars 92
p cnf 316 932
93 -1 0
93 -2 0
-93 1 2 0
94 -3 0
94 -4 0
-94 3 4 0
95 -5 0
95 -6 0
-95 5 6 0
96 -7 0
96 -8 0
-96 7 8 0
97 -9 0
97 -10 0
-97 9 10 0
98 -11 0
98 -12 0
-98 11 12 0
99 -13 0
99 -14 0
-99 13 14 0
100 -15 0
100 -16 0
-100 15 16 0
101 -17 0
101 -18 0
-101 17 18 0
102 -19 0
102 -20 0
-102 19 20 0
103 -21 0
103 -22 0
-103 21 22 0
104 -23 0
104 -24 0
-104 23 24 0
105 -25 0
105 -26 0
-105 25 26 0
106 -27 0
106 -28 0
-106 27 28 0
107 -29 0
107 -30 0
-107 29 30 0
108 -31 0
108 -32 0
-108 31 32 0
109 -33 0
109 -34 0
-109 33 34 0
110 -35 0
110 -36 0
-110 35 36 0
-111 93 0
-111 94 0
-111 95 0
-111 96 0
-111 97 0
-111 98 0
-111 99 0
-111 100 0
-111 101 0
-111 102 0
-111 103 0
-111 104 0
-111 105 0
-111 106 0
-111 107 0
-111 108 0
-111 109 0
-111 110 0
111 -93 -94 -95 -96 -97 -98 -99 -100 -101 -102 -103 -104 -105 -106 -107 -108 -109 -110 0
-111 0
112 -37 0
112 -45 0
112 -53 0
112 -61 0
112 -69 0
112 -77 0
112 -85 0
-112 37 45 53 61 69 77 85 0
113 -38 0
113 -46 0
113 -54 0
113 -62 0
113 -70 0
113 -78 0
113 -86 0
-113 38 46 54 62 70 78 86 0
114 -39 0
114 -47 0
114 -55 0
114 -63 0
114 -71 0
114 -79 0
114 -87 0
-114 39 47 55 63 71 79 87 0
115 -40 0
115 -48 0
115 -56 0
115 -64 0
115 -72 0
115 -80 0
115 -88 0
-115 40 48 56 64 72 80 88 0
116 -41 0
116 -49 0
116 -57 0
116 -65 0
116 -73 0
116 -81 0
116 -89 0
-116 41 49 57 65 73 81 89 0
117 -42 0
117 -50 0
117 -58 0
117 -66 0
117 -74 0
117 -82 0
117 -90 0
-117 42 50 58 66 74 82 90 0
118 -43 0
118 -51 0
118 -59 0
118 -67 0
118 -75 0
118 -83 0
118 -91 0
-118 43 51 59 67 75 83 91 0
119 -44 0
119 -52 0
119 -60 0
119 -68 0
119 -76 0
119 -84 0
119 -92 0
-119 44 52 60 68 76 84 92 0
120 37 0
120 38 0
-120 -37 -38 0
121 37 0
121 39 0
-121 -37 -39 0
122 37 0
122 40 0
-122 -37 -40 0
123 37 0
123 41 0
-123 -37 -41 0
124 37 0
124 42 0
-124 -37 -42 0
125 37 0
125 43 0
-125 -37 -43 0
126 37 0
126 44 0
-126 -37 -44 0
127 38 0
127 39 0
-127 -38 -39 0
128 38 0
128 40 0
-128 -38 -40 0
129 38 0
129 41 0
-129 -38 -41 0
130 38 0
130 42 0
-130 -38 -42 0
131 38 0
131 43 0
-131 -38 -43 0
132 38 0
132 44 0
-132 -38 -44 0
133 39 0
133 40 0
-133 -39 -40 0
134 39 0
134 41 0
-134 -39 -41 0
135 39 0
135 42 0
-135 -39 -42 0
136 39 0
136 43 0
-136 -39 -43 0
137 39 0
137 44 0
-137 -39 -44 0
138 40 0
138 41 0
-138 -40 -41 0
139 40 0
139 42 0
-139 -40 -42 0
140 40 0
140 43 0
-140 -40 -43 0
141 40 0
141 44 0
-141 -40 -44 0
142 41 0
142 42 0
-142 -41 -42 0
143 41 0
143 43 0
-143 -41 -43 0
144 41 0
144 44 0
-144 -41 -44 0
145 42 0
145 43 0
-145 -42 -43 0
146 42 0
146 44 0
-146 -42 -44 0
147 43 0
147 44 0
-147 -43 -44 0
148 45 0
148 46 0
-148 -45 -46 0
149 45 0
149 47 0
-149 -45 -47 0
150 45 0
150 48 0
-150 -45 -48 0
151 45 0
151 49 0
-151 -45 -49 0
152 45 0
152 50 0
-152 -45 -50 0
153 45 0
153 51 0
-153 -45 -51 0
154 45 0
154 52 0
-154 -45 -52 0
155 46 0
155 47 0
-155 -46 -47 0
156 46 0
156 48 0
-156 -46 -48 0
157 46 0
157 49 0
-157 -46 -49 0
158 46 0
158 50 0
-158 -46 -50 0
159 46 0
159 51 0
-159 -46 -51 0
160 46 0
160 52 0
-160 -46 -52 0
161 47 0
161 48 0
-161 -47 -48 0
162 47 0
162 49 0
-162 -47 -49 0
163 47 0
163 50 0
-163 -47 -50 0
164 47 0
164 51 0
-164 -47 -51 0
165 47 0
165 52 0
-165 -47 -52 0
166 48 0
166 49 0
-166 -48 -49 0
167 48 0
167 50 0
-167 -48 -50 0
168 48 0
168 51 0
-168 -48 -51 0
169 48 0
169 52 0
-169 -48 -52 0
170 49 0
170 50 0
-170 -49 -50 0
171 49 0
171 51 0
-171 -49 -51 0
172 49 0
172 52 0
-172 -49 -52 0
173 50 0
173 51 0
-173 -50 -51 0
174 50 0
174 52 0
-174 -50 -52 0
175 51 0
175 52 0
-175 -51 -52 0
176 53 0
176 54 0
-176 -53 -54 0
177 53 0
177 55 0
-177 -53 -55 0
178 53 0
178 56 0
-178 -53 -56 0
179 53 0
179 57 0
-179 -53 -57 0
180 53 0
180 58 0
-180 -53 -58 0
181 53 0
181 59 0
-181 -53 -59 0
182 53 0
182 60 0
-182 -53 -60 0
183 54 0
183 55 0
-183 -54 -55 0
184 54 0
184 56 0
-184 -54 -56 0
185 54 0
185 57 0
-185 -54 -57 0
186 54 0
186 58 0
-186 -54 -58 0
187 54 0
187 59 0
-187 -54 -59 0
188 54 0
188 60 0
-188 -54 -60 0
189 55 0
189 56 0
-189 -55 -56 0
190 55 0
190 57 0
-190 -55 -57 0
191 55 0
191 58 0
-191 -55 -58 0
192 55 0
192 59 0
-192 -55 -59 0
193 55 0
193 60 0
-193 -55 -60 0
194 56 0
194 57 0
-194 -56 -57 0
195 56 0
195 58 0
-195 -56 -58 0
196 56 0
196 59 0
-196 -56 -59 0
197 56 0
197 60 0
-197 -56 -60 0
198 57 0
198 58 0
-198 -57 -58 0
199 57 0
199 59 0
-199 -57 -59 0
200 57 0
200 60 0
-200 -57 -60 0
201 58 0
201 59 0
-201 -58 -59 0
202 58 0
202 60 0
-202 -58 -60 0
203 59 0
203 60 0
-203 -59 -60 0
204 61 0
204 62 0
-204 -61 -62 0
205 61 0
205 63 0
-205 -61 -63 0
206 61 0
206 64 0
-206 -61 -64 0
207 61 0
207 65 0
-207 -61 -65 0
208 61 0
208 66 0
-208 -61 -66 0
209 61 0
209 67 0
-209 -61 -67 0
210 61 0
210 68 0
-210 -61 -68 0
211 62 0
211 63 0
-211 -62 -63 0
212 62 0
212 64 0
-212 -62 -64 0
213 62 0
213 65 0
-213 -62 -65 0
214 62 0
214 66 0
-214 -62 -66 0
215 62 0
215 67 0
-215 -62 -67 0
216 62 0
216 68 0
-216 -62 -68 0
217 63 0
217 64 0
-217 -63 -64 0
218 63 0
218 65 0
-218 -63 -65 0
219 63 0
219 66 0
-219 -63 -66 0
220 63 0
220 67 0
-220 -63 -67 0
221 63 0
221 68 0
-221 -63 -68 0
222 64 0
222 65 0
-222 -64 -65 0
223 64 0
223 66 0
-223 -64 -66 0
224 64 0
224 67 0
-224 -64 -67 0
225 64 0
225 68 0
-225 -64 -68 0
226 65 0
226 66 0
-226 -65 -66 0
227 65 0
227 67 0
-227 -65 -67 0
228 65 0
228 68 0
-228 -65 -68 0
229 66 0
229 67 0
-229 -66 -67 0
230 66 0
230 68 0
-230 -66 -68 0
231 67 0
231 68 0
-231 -67 -68 0
232 69 0
232 70 0
-232 -69 -70 0
233 69 0
233 71 0
-233 -69 -71 0
234 69 0
234 72 0
-234 -69 -72 0
235 69 0
235 73 0
-235 -69 -73 0
236 69 0
236 74 0
-236 -69 -74 0
237 69 0
237 75 0
-237 -69 -75 0
238 69 0
238 76 0
-238 -69 -76 0
239 70 0
239 71 0
-239 -70 -71 0
240 70 0
240 72 0
-240 -70 -72 0
241 70 0
241 73 0
-241 -70 -73 0
242 70 0
242 74 0
-242 -70 -74 0
243 70 0
243 75 0
-243 -70 -75 0
244 70 0
244 76 0
-244 -70 -76 0
245 71 0
245 72 0
-245 -71 -72 0
246 71 0
246 73 0
-246 -71 -73 0
247 71 0
247 74 0
-247 -71 -74 0
248 71 0
248 75 0
-248 -71 -75 0
249 71 0
249 76 0
-249 -71 -76 0
250 72 0
250 73 0
-250 -72 -73 0
251 72 0
251 74 0
-251 -72 -74 0
252 72 0
252 75 0
-252 -72 -75 0
253 72 0
253 76 0
-253 -72 -76 0
254 73 0
254 74 0
-254 -73 -74 0
255 73 0
255 75 0
-255 -73 -75 0
256 73 0
256 76 0
-256 -73 -76 0
257 74 0
257 75 0
-257 -74 -75 0
258 74 0
258 76 0
-258 -74 -76 0
259 75 0
259 76 0
-259 -75 -76 0
260 77 0
260 78 0
-260 -77 -78 0
261 77 0
261 79 0
-261 -77 -79 0
262 77 0
262 80 0
-262 -77 -80 0
263 77 0
263 81 0
-263 -77 -81 0
264 77 0
264 82 0
-264 -77 -82 0
265 77 0
265 83 0
-265 -77 -83 0
266 77 0
266 84 0
-266 -77 -84 0
267 78 0
267 79 0
-267 -78 -79 0
268 78 0
268 80 0
-268 -78 -80 0
269 78 0
269 81 0
-269 -78 -81 0
270 78 0
270 82 0
-270 -78 -82 0
271 78 0
271 83 0
-271 -78 -83 0
272 78 0
272 84 0
-272 -78 -84 0
273 79 0
273 80 0
-273 -79 -80 0
274 79 0
274 81 0
-274 -79 -81 0
275 79 0
275 82 0
-275 -79 -82 0
276 79 0
276 83 0
-276 -79 -83 0
277 79 0
277 84 0
-277 -79 -84 0
278 80 0
278 81 0
-278 -80 -81 0
279 80 0
279 82 0
-279 -80 -82 0
280 80 0
280 83 0
-280 -80 -83 0
281 80 0
281 84 0
-281 -80 -84 0
282 81 0
282 82 0
-282 -81 -82 0
283 81 0
283 83 0
-283 -81 -83 0
284 81 0
284 84 0
-284 -81 -84 0
285 82 0
285 83 0
-285 -82 -83 0
286 82 0
286 84 0
-286 -82 -84 0
287 83 0
287 84 0
-287 -83 -84 0
288 85 0
288 86 0
-288 -85 -86 0
289 85 0
289 87 0
-289 -85 -87 0
290 85 0
290 88 0
-290 -85 -88 0
291 85 0
291 89 0
-291 -85 -89 0
292 85 0
292 90 0
-292 -85 -90 0
293 85 0
293 91 0
-293 -85 -91 0
294 85 0
294 92 0
-294 -85 -92 0
295 86 0
295 87 0
-295 -86 -87 0
296 86 0
296 88 0
-296 -86 -88 0
297 86 0
297 89 0
-297 -86 -89 0
298 86 0
298 90 0
-298 -86 -90 0
299 86 0
299 91 0
-299 -86 -91 0
300 86 0
300 92 0
-300 -86 -92 0
301 87 0
301 88 0
-301 -87 -88 0
302 87 0
302 89 0
-302 -87 -89 0
303 87 0
303 90 0
-303 -87 -90 0
304 87 0
304 91 0
-304 -87 -91 0
305 87 0
305 92 0
-305 -87 -92 0
306 88 0
306 89 0
-306 -88 -89 0
307 88 0
307 90 0
-307 -88 -90 0
308 88 0
308 91 0
-308 -88 -91 0
309 88 0
309 92 0
-309 -88 -92 0
310 89 0
310 90 0
-310 -89 -90 0
311 89 0
311 91 0
-311 -89 -91 0
312 89 0
312 92 0
-312 -89 -92 0
313 90 0
313 91 0
-313 -90 -91 0
314 90 0
314 92 0
-314 -90 -92 0
315 91 0
315 92 0
-315 -91 -92 0
-316 112 0
-316 113 0
-316 114 0
-316 115 0
-316 116 0
-316 117 0
-316 118 0
-316 119 0
-316 120 0
-316 121 0
-316 122 0
-316 123 0
-316 124 0
-316 125 0
-316 126 0
-316 127 0
-316 128 0
-316 129 0
-316 130 0
-316 131 0
-316 132 0
-316 133 0
-316 134 0
-316 135 0
-316 136 0
-316 137 0
-316 138 0
-316 139 0
-316 140 0
-316 141 0
-316 142 0
-316 143 0
-316 144 0
-316 145 0
-316 146 0
-316 147 0
-316 148 0
-316 149 0
-316 150 0
-316 151 0
-316 152 0
-316 153 0
-316 154 0
-316 155 0
-316 156 0
-316 157 0
-316 158 0
-316 159 0
-316 160 0
-316 161 0
-316 162 0
-316 163 0
-316 164 0
-316 165 0
-316 166 0
-316 167 0
-316 168 0
-316 169 0
-316 170 0
-316 171 0
-316 172 0
-316 173 0
-316 174 0
-316 175 0
-316 176 0
-316 177 0
-316 178 0
-316 179 0
-316 180 0
-316 181 0
-316 182 0
-316 183 0
-316 184 0
-316 185 0
-316 186 0
-316 187 0
-316 188 0
-316 189 0
-316 190 0
-316 191 0
-316 192 0
-316 193 0
-316 194 0
-316 195 0
-316 196 0
-316 197 0
-316 198 0
-316 199 0
-316 200 0
-316 201 0
-316 202 0
-316 203 0
-316 204 0
-316 205 0
-316 206 0
-316 207 0
-316 208 0
-316 209 0
-316 210 0
-316 211 0
-316 212 0
-316 213 0
-316 214 0
-316 215 0
-316 216 0
-316 217 0
-316 218 0
-316 219 0
-316 220 0
-316 221 0
-316 222 0
-316 223 0
-316 224 0
-316 225 0
-316 226 0
-316 227 0
-316 228 0
-316 229 0
-316 230 0
-316 231 0
-316 232 0
-316 233 0
-316 234 0
-316 235 0
-316 236 0
-316 237 0
-316 238 0
-316 239 0
-316 240 0
-316 241 0
-316 242 0
-316 243 0
-316 244 0
-316 245 0
-316 246 0
-316 247 0
-316 248 0
-316 249 0
-316 250 0
-316 251 0
-316 252 0
-316 253 0
-316 254 0
-316 255 0
-316 256 0
-316 257 0
-316 258 0
-316 259 0
-316 260 0
-316 261 0
-316 262 0
-316 263 0
-316 264 0
-316 265 0
-316 266 0
-316 267 0
-316 268 0
-316 269 0
-316 270 0
-316 271 0
-316 272 0
-316 273 0
-316 274 0
-316 275 0
-316 276 0
-316 277 0
-316 278 0
-316 279 0
-316 280 0
-316 281 0
-316 282 0
-316 283 0
-316 284 0
-316 285 0
-316 286 0
-316 287 0
-316 288 0
-316 289 0
-316 290 0
-316 291 0
-316 292 0
-316 293 0
-316 294 0
-316 295 0
-316 296 0
-316 297 0
-316 298 0
-316 299 0
-316 300 0
-316 301 0
-316 302 0
-316 303 0
-316 304 0
-316 305 0
-316 306 0
-316 307 0
-316 308 0
-316 309 0
-316 310 0
-316 311 0
-316 312 0
-316 313 0
-316 314 0
-316 315 0
316 -112 -113 -114 -115 -116 -117 -118 -119 -120 -121 -122 -123 -124 -125 -126 -127 -128 -129 -130 -131 -132 -133 -134 -135 -136 -137 -138 -139 -140 -141 -142 -143 -144 -145 -146 -147 -148 -149 -150 -151 -152 -153 -154 -155 -156 -157 -158 -159 -160 -161 -162 -163 -164 -165 -166 -167 -168 -169 -170 -171 -172 -173 -174 -175 -176 -177 -178 -179 -180 -181 -182 -183 -184 -185 -186 -187 -188 -189 -190 -191 -192 -193 -194 -195 -196 -197 -198 -199 -200 -201 -202 -203 -204 -205 -206 -207 -208 -209 -210 -211 -212 -213 -214 -215 -216 -217 -218 -219 -220 -221 -222 -223 -224 -225 -226 -227 -228 -229 -230 -231 -232 -233 -234 -235 -236 -237 -238 -239 -240 -241 -242 -243 -244 -245 -246 -247 -248 -249 -250 -251 -252 -253 -254 -255 -256 -257 -258 -259 -260 -261 -262 -263 -264 -265 -266 -267 -268 -269 -270 -271 -272 -273 -274 -275 -276 -277 -278 -279 -280 -281 -282 -283 -284 -285 -286 -287 -288 -289 -290 -291 -292 -293 -294 -295 -296 -297 -298 -299 -300 -301 -302 -303 -304 -305 -306 -307 -308 -309 -310 -311 -312 -313 -314 -315 0
-316 0
